c FILE /home/rafael/Documents/HappySet/MIHS/inputs/happygen/output/graph_scale_free_k2_p0.5_v100_20241127_083801.txt
c SOURCE This is a scale-free graph formed for the happy graph colouring problem.
c DESCRIPTION It was generated using the problem generator of Rhyd Lewis
c
c GRAPH STATS
c Seed                             = 1252317416
c Number of Nodes                  = 100
c Number of colours k              = 2
c Number of pre-assignments        = 50
c Number of links per new node     = 5
c Density                          = 0.0979798
c 
c The degrees of nodes 1 to 100, respectively, are as follows 
c [41, 35, 33, 32, 23, 23, 23, 22, 21, 20, 19, 18, 18, 18, 16, 16, 15, 13, 13, 12, 12, 12, 11, 11, 11, 11, 
c  10, 10, 10, 10, 9, 9, 9, 9, 9, 8, 8, 8, 8, 8, 7, 7, 7, 7, 7, 7, 7, 7, 7, 7, 7, 
c  7, 7, 6, 6, 6, 6, 6, 6, 6, 6, 6, 6, 6, 6, 6, 6, 6, 6, 6, 6, 6, 6, 5, 5, 5, 
c  5, 5, 5, 5, 5, 5, 5, 5, 5, 5, 5, 5, 5, 5, 5, 5, 5, 5, 5, 5, 5, 5, 5, 5] 
c  
p edge 100 485 2
e 1 2
e 1 3
e 1 4
e 1 5
e 1 6
e 1 7
e 1 8
e 1 9
e 1 10
e 1 12
e 1 13
e 1 14
e 1 16
e 1 20
e 1 22
e 1 23
e 1 24
e 1 25
e 1 27
e 1 32
e 1 33
e 1 38
e 1 41
e 1 44
e 1 46
e 1 47
e 1 48
e 1 49
e 1 52
e 1 62
e 1 63
e 1 64
e 1 70
e 1 74
e 1 75
e 1 78
e 1 79
e 1 89
e 1 95
e 1 96
e 1 100
e 2 3
e 2 4
e 2 5
e 2 6
e 2 7
e 2 9
e 2 10
e 2 11
e 2 12
e 2 14
e 2 16
e 2 26
e 2 27
e 2 34
e 2 35
e 2 36
e 2 39
e 2 41
e 2 51
e 2 55
e 2 56
e 2 58
e 2 59
e 2 65
e 2 66
e 2 67
e 2 68
e 2 70
e 2 73
e 2 76
e 2 78
e 2 83
e 2 88
e 2 97
e 3 4
e 3 5
e 3 9
e 3 13
e 3 14
e 3 16
e 3 18
e 3 21
e 3 24
e 3 25
e 3 26
e 3 28
e 3 34
e 3 36
e 3 37
e 3 38
e 3 43
e 3 44
e 3 47
e 3 50
e 3 55
e 3 57
e 3 60
e 3 64
e 3 67
e 3 74
e 3 75
e 3 80
e 3 83
e 3 93
e 3 100
e 4 5
e 4 6
e 4 7
e 4 8
e 4 9
e 4 10
e 4 11
e 4 12
e 4 13
e 4 17
e 4 24
e 4 27
e 4 31
e 4 32
e 4 39
e 4 46
e 4 48
e 4 52
e 4 53
e 4 56
e 4 59
e 4 64
e 4 69
e 4 72
e 4 74
e 4 78
e 4 79
e 4 85
e 4 95
e 5 6
e 5 7
e 5 9
e 5 11
e 5 17
e 5 19
e 5 20
e 5 23
e 5 25
e 5 26
e 5 27
e 5 29
e 5 32
e 5 42
e 5 44
e 5 50
e 5 54
e 5 74
e 5 94
e 6 7
e 6 8
e 6 9
e 6 10
e 6 11
e 6 15
e 6 21
e 6 23
e 6 24
e 6 25
e 6 40
e 6 43
e 6 46
e 6 49
e 6 56
e 6 74
e 6 77
e 6 87
e 6 97
e 7 8
e 7 13
e 7 17
e 7 19
e 7 20
e 7 21
e 7 25
e 7 31
e 7 35
e 7 36
e 7 40
e 7 60
e 7 71
e 7 75
e 7 80
e 7 81
e 7 84
e 7 94
e 8 10
e 8 12
e 8 14
e 8 15
e 8 18
e 8 20
e 8 24
e 8 31
e 8 36
e 8 38
e 8 50
e 8 55
e 8 63
e 8 75
e 8 87
e 8 90
e 8 94
e 8 98
e 9 10
e 9 12
e 9 17
e 9 18
e 9 20
e 9 23
e 9 26
e 9 27
e 9 42
e 9 45
e 9 54
e 9 66
e 9 68
e 9 86
e 9 92
e 10 15
e 10 16
e 10 17
e 10 19
e 10 30
e 10 31
e 10 37
e 10 46
e 10 48
e 10 53
e 10 56
e 10 62
e 10 77
e 10 81
e 11 15
e 11 18
e 11 27
e 11 28
e 11 33
e 11 34
e 11 40
e 11 43
e 11 50
e 11 54
e 11 58
e 11 73
e 11 91
e 11 93
e 11 96
e 12 22
e 12 28
e 12 37
e 12 50
e 12 54
e 12 61
e 12 63
e 12 65
e 12 76
e 12 88
e 12 98
e 12 99
e 12 100
e 13 16
e 13 33
e 13 38
e 13 41
e 13 45
e 13 48
e 13 49
e 13 58
e 13 66
e 13 67
e 13 73
e 13 89
e 13 94
e 13 98
e 14 15
e 14 21
e 14 29
e 14 46
e 14 47
e 14 59
e 14 60
e 14 61
e 14 62
e 14 65
e 14 69
e 14 70
e 14 71
e 14 75
e 15 20
e 15 28
e 15 31
e 15 32
e 15 49
e 15 55
e 15 80
e 15 90
e 15 92
e 15 93
e 15 97
e 16 17
e 16 18
e 16 22
e 16 40
e 16 41
e 16 43
e 16 59
e 16 72
e 16 76
e 16 82
e 16 91
e 17 28
e 17 39
e 17 42
e 17 62
e 17 65
e 17 77
e 17 79
e 17 83
e 17 84
e 18 19
e 18 29
e 18 32
e 18 43
e 18 45
e 18 62
e 18 86
e 18 93
e 19 24
e 19 45
e 19 53
e 19 57
e 19 64
e 19 66
e 19 78
e 19 94
e 19 96
e 20 22
e 20 23
e 20 30
e 20 33
e 20 90
e 20 97
e 21 37
e 21 38
e 21 43
e 21 44
e 21 52
e 21 54
e 21 57
e 21 84
e 22 32
e 22 39
e 22 47
e 22 63
e 22 68
e 22 77
e 22 79
e 22 93
e 23 30
e 23 39
e 23 63
e 23 81
e 23 82
e 23 89
e 24 30
e 24 36
e 24 41
e 24 55
e 24 57
e 25 42
e 25 49
e 25 70
e 25 76
e 25 81
e 25 85
e 26 29
e 26 61
e 26 77
e 26 81
e 26 90
e 26 95
e 26 96
e 27 42
e 27 53
e 27 71
e 27 96
e 28 29
e 28 56
e 28 58
e 28 76
e 28 83
e 29 41
e 29 51
e 29 78
e 29 79
e 29 92
e 30 33
e 30 34
e 30 52
e 30 73
e 30 85
e 30 99
e 31 37
e 31 44
e 31 68
e 31 84
e 32 64
e 32 67
e 32 71
e 33 36
e 33 51
e 33 57
e 33 87
e 34 40
e 34 65
e 34 69
e 34 82
e 34 88
e 35 41
e 35 44
e 35 50
e 35 72
e 35 85
e 35 89
e 35 97
e 36 82
e 36 85
e 37 47
e 37 60
e 37 80
e 38 58
e 38 59
e 38 88
e 39 40
e 39 61
e 39 84
e 40 66
e 40 67
e 42 61
e 42 86
e 43 45
e 44 51
e 45 53
e 45 60
e 46 48
e 46 51
e 47 91
e 47 95
e 48 99
e 48 100
e 49 91
e 49 99
e 50 73
e 51 86
e 51 90
e 52 62
e 52 72
e 52 98
e 53 72
e 53 99
e 54 92
e 55 82
e 56 80
e 57 83
e 58 86
e 59 69
e 60 68
e 61 95
e 63 69
e 64 87
e 65 92
e 66 88
e 67 70
e 68 91
e 69 87
e 70 71
e 71 98
e 72 89
e 73 100
n 2 2
n 5 2
n 8 2
n 13 2
n 16 2
n 17 2
n 20 2
n 21 1
n 23 2
n 24 2
n 25 2
n 28 2
n 35 2
n 36 2
n 39 2
n 41 2
n 42 2
n 45 2
n 46 2
n 47 2
n 48 2
n 49 2
n 51 2
n 53 2
n 55 2
n 59 2
n 60 2
n 61 2
n 63 2
n 66 2
n 67 2
n 68 2
n 69 2
n 71 1
n 74 2
n 76 2
n 78 2
n 79 2
n 80 1
n 82 2
n 83 2
n 86 2
n 90 2
n 91 2
n 92 1
n 93 2
n 94 2
n 96 1
n 97 2
n 99 2
